DIMACS_lns/graph-1000-167.col
p edge 1000 1846
e 1 806
e 1 222
e 1 694
e 1 470
e 1 777
e 1 902
e 1 85
e 1 695
e 1 491
e 2 977
e 2 90
e 2 742
e 2 229
e 2 545
e 4 548
e 4 125
e 4 334
e 5 825
e 5 733
e 5 779
e 6 412
e 6 383
e 6 551
e 6 583
e 6 155
e 6 681
e 7 630
e 7 783
e 7 748
e 7 292
e 7 187
e 8 374
e 8 273
e 8 56
e 9 664
e 9 723
e 9 876
e 9 387
e 9 541
e 9 258
e 10 201
e 10 88
e 10 839
e 11 825
e 11 859
e 11 448
e 12 486
e 12 552
e 12 735
e 13 273
e 13 609
e 13 309
e 13 340
e 14 665
e 14 68
e 14 342
e 14 212
e 14 636
e 14 677
e 14 715
e 16 881
e 16 232
e 16 868
e 16 894
e 16 669
e 16 364
e 18 895
e 18 897
e 18 289
e 21 750
e 21 835
e 21 358
e 21 674
e 21 258
e 21 702
e 21 747
e 21 176
e 23 325
e 23 123
e 23 792
e 23 717
e 23 38
e 23 894
e 23 230
e 25 347
e 25 833
e 25 58
e 25 921
e 25 263
e 25 799
e 25 553
e 25 822
e 25 96
e 25 742
e 25 850
e 26 699
e 26 519
e 26 494
e 26 337
e 27 819
e 27 992
e 27 796
e 28 93
e 28 377
e 28 344
e 29 141
e 29 954
e 29 961
e 30 263
e 30 584
e 30 414
e 30 520
e 33 192
e 33 206
e 33 897
e 33 450
e 34 278
e 34 670
e 34 100
e 34 868
e 35 669
e 35 742
e 35 462
e 35 705
e 36 144
e 36 237
e 36 251
e 37 580
e 37 105
e 37 171
e 37 495
e 37 887
e 37 101
e 38 691
e 38 449
e 38 239
e 38 171
e 41 532
e 41 636
e 41 496
e 41 722
e 41 821
e 42 878
e 42 961
e 42 477
e 44 562
e 44 553
e 44 748
e 44 51
e 44 143
e 45 784
e 45 662
e 45 512
e 45 256
e 45 208
e 45 998
e 46 909
e 46 954
e 46 723
e 47 697
e 47 882
e 47 832
e 47 377
e 50 867
e 50 179
e 50 627
e 50 458
e 50 780
e 50 414
e 50 721
e 51 357
e 51 903
e 51 995
e 51 365
e 52 167
e 52 888
e 52 908
e 52 315
e 54 391
e 54 562
e 54 232
e 54 750
e 56 525
e 56 450
e 57 702
e 57 234
e 57 253
e 57 320
e 57 824
e 57 854
e 58 889
e 58 640
e 58 835
e 58 595
e 58 215
e 58 706
e 58 966
e 58 590
e 59 852
e 59 331
e 59 767
e 60 734
e 60 854
e 60 449
e 60 629
e 60 133
e 62 630
e 62 455
e 62 915
e 62 803
e 63 317
e 63 544
e 63 601
e 63 983
e 64 867
e 64 694
e 64 858
e 64 265
e 65 697
e 65 984
e 65 444
e 65 797
e 66 502
e 66 253
e 66 879
e 66 810
e 66 466
e 66 815
e 66 210
e 68 665
e 68 690
e 70 381
e 70 968
e 70 863
e 70 83
e 70 841
e 70 172
e 72 377
e 72 817
e 72 907
e 73 718
e 73 744
e 73 441
e 73 903
e 73 961
e 73 137
e 74 884
e 74 876
e 74 729
e 74 449
e 76 289
e 76 253
e 76 101
e 77 120
e 77 180
e 77 87
e 77 817
e 77 507
e 78 654
e 78 224
e 78 438
e 80 794
e 80 592
e 80 648
e 80 874
e 80 322
e 80 645
e 80 555
e 81 318
e 81 245
e 81 930
e 82 203
e 82 762
e 82 485
e 83 461
e 83 665
e 83 826
e 83 556
e 84 896
e 84 974
e 84 952
e 84 640
e 84 529
e 84 785
e 84 816
e 84 320
e 85 99
e 85 146
e 85 126
e 85 877
e 85 373
e 85 623
e 85 661
e 85 565
e 87 363
e 87 748
e 88 312
e 88 584
e 88 488
e 88 445
e 90 360
e 90 895
e 90 570
e 90 971
e 91 400
e 91 469
e 91 623
e 92 726
e 92 322
e 92 915
e 93 551
e 93 380
e 93 597
e 93 670
e 94 481
e 94 681
e 94 976
e 94 854
e 95 553
e 95 348
e 95 313
e 95 342
e 96 287
e 96 399
e 96 397
e 97 139
e 97 895
e 97 243
e 97 842
e 98 363
e 98 476
e 98 564
e 99 187
e 99 458
e 99 691
e 99 930
e 99 941
e 99 654
e 100 908
e 100 842
e 101 121
e 101 318
e 101 559
e 102 141
e 102 822
e 102 678
e 102 216
e 102 945
e 103 189
e 103 345
e 103 847
e 104 278
e 104 255
e 104 506
e 104 223
e 105 818
e 105 658
e 105 624
e 105 576
e 108 749
e 108 480
e 108 609
e 109 212
e 109 284
e 109 728
e 110 592
e 110 265
e 110 616
e 110 289
e 110 852
e 110 943
e 111 717
e 111 828
e 111 901
e 113 856
e 113 126
e 113 297
e 113 740
e 113 340
e 113 494
e 113 715
e 113 695
e 114 166
e 114 300
e 114 604
e 114 566
e 114 212
e 114 124
e 114 243
e 114 500
e 115 662
e 115 915
e 115 498
e 115 983
e 117 541
e 117 437
e 117 848
e 118 811
e 118 820
e 118 518
e 118 176
e 118 654
e 118 139
e 118 801
e 118 873
e 119 176
e 119 812
e 119 859
e 119 202
e 119 365
e 119 445
e 120 646
e 120 131
e 121 411
e 121 465
e 121 661
e 121 234
e 121 895
e 122 590
e 122 413
e 122 991
e 122 723
e 122 243
e 123 147
e 123 744
e 123 767
e 124 726
e 124 950
e 125 216
e 125 349
e 125 241
e 125 972
e 125 849
e 125 583
e 125 974
e 126 905
e 126 778
e 126 958
e 127 317
e 127 199
e 127 320
e 128 380
e 128 202
e 128 843
e 129 692
e 129 719
e 129 399
e 130 597
e 130 687
e 130 250
e 130 523
e 131 741
e 131 604
e 132 641
e 132 896
e 132 787
e 132 576
e 132 968
e 132 791
e 132 605
e 133 826
e 133 811
e 133 486
e 133 326
e 133 645
e 133 669
e 135 233
e 135 174
e 135 466
e 135 840
e 135 483
e 135 587
e 135 677
e 137 760
e 137 617
e 137 939
e 139 315
e 139 818
e 139 784
e 139 797
e 140 1000
e 140 619
e 140 828
e 140 657
e 140 904
e 141 680
e 141 385
e 141 961
e 142 241
e 142 199
e 142 779
e 142 683
e 142 253
e 142 821
e 143 535
e 143 519
e 143 856
e 143 673
e 144 670
e 144 361
e 144 970
e 144 913
e 145 521
e 145 981
e 145 956
e 145 909
e 145 350
e 145 595
e 146 858
e 146 619
e 146 449
e 146 762
e 147 251
e 147 750
e 147 284
e 147 873
e 147 666
e 149 319
e 149 296
e 149 729
e 149 470
e 149 777
e 150 300
e 150 470
e 150 999
e 151 648
e 151 881
e 151 681
e 152 843
e 152 970
e 152 199
e 152 855
e 152 889
e 152 862
e 152 709
e 152 266
e 153 495
e 153 441
e 153 799
e 154 366
e 154 241
e 154 227
e 154 438
e 154 517
e 155 350
e 155 574
e 155 689
e 155 391
e 155 538
e 156 323
e 156 223
e 156 824
e 156 411
e 157 873
e 157 215
e 157 292
e 157 826
e 157 397
e 158 854
e 158 946
e 158 262
e 159 879
e 159 979
e 159 200
e 159 234
e 160 307
e 160 381
e 160 748
e 161 410
e 161 425
e 161 233
e 161 625
e 163 651
e 163 751
e 163 985
e 164 204
e 164 793
e 164 837
e 164 406
e 164 175
e 165 874
e 165 989
e 165 877
e 166 521
e 166 812
e 166 447
e 167 968
e 167 358
e 167 456
e 167 274
e 168 286
e 168 749
e 168 758
e 168 331
e 171 417
e 171 970
e 171 407
e 172 406
e 172 999
e 172 427
e 172 512
e 172 430
e 172 824
e 172 717
e 173 175
e 173 255
e 173 369
e 173 826
e 173 339
e 173 699
e 174 243
e 174 512
e 174 380
e 174 485
e 175 214
e 175 385
e 175 209
e 175 180
e 176 316
e 176 358
e 176 837
e 176 737
e 178 956
e 178 475
e 178 648
e 178 308
e 178 333
e 179 506
e 179 862
e 179 527
e 179 215
e 180 339
e 180 975
e 180 999
e 186 824
e 186 633
e 186 287
e 186 937
e 187 651
e 187 338
e 187 205
e 189 508
e 189 206
e 189 778
e 189 245
e 189 978
e 192 340
e 192 241
e 193 740
e 193 523
e 193 559
e 193 802
e 193 246
e 194 448
e 194 440
e 194 589
e 194 420
e 194 884
e 194 893
e 194 553
e 194 688
e 194 693
e 194 506
e 199 593
e 199 576
e 199 406
e 199 947
e 199 894
e 200 468
e 200 757
e 200 630
e 200 275
e 200 282
e 200 815
e 200 839
e 200 855
e 201 379
e 201 800
e 202 297
e 202 463
e 202 261
e 202 506
e 202 358
e 202 966
e 203 481
e 203 487
e 204 473
e 204 971
e 205 583
e 205 793
e 205 659
e 205 697
e 205 619
e 205 477
e 205 379
e 206 694
e 206 718
e 206 932
e 206 536
e 207 957
e 207 251
e 207 962
e 207 590
e 208 784
e 208 785
e 208 220
e 208 974
e 208 947
e 209 702
e 209 567
e 209 484
e 209 658
e 209 393
e 209 912
e 209 218
e 210 345
e 210 635
e 210 374
e 210 760
e 212 277
e 214 531
e 214 282
e 214 678
e 214 622
e 215 670
e 215 371
e 215 625
e 215 950
e 216 509
e 216 920
e 217 349
e 217 416
e 217 868
e 217 865
e 217 974
e 218 566
e 218 941
e 218 326
e 218 699
e 218 589
e 220 669
e 220 666
e 220 850
e 220 639
e 220 299
e 220 753
e 221 910
e 221 652
e 221 403
e 221 284
e 221 728
e 221 334
e 222 785
e 222 654
e 222 614
e 222 595
e 223 480
e 223 894
e 223 369
e 223 291
e 224 428
e 224 686
e 224 733
e 226 812
e 226 973
e 226 544
e 226 688
e 227 706
e 227 413
e 227 468
e 227 879
e 227 527
e 228 322
e 228 662
e 228 912
e 228 261
e 228 708
e 229 714
e 229 510
e 229 601
e 230 517
e 230 481
e 230 641
e 231 738
e 231 318
e 231 546
e 231 721
e 232 589
e 232 592
e 233 433
e 233 303
e 233 489
e 233 307
e 233 468
e 233 553
e 233 812
e 234 817
e 234 856
e 237 910
e 237 854
e 237 344
e 237 406
e 238 776
e 238 481
e 238 635
e 238 988
e 239 376
e 239 580
e 239 468
e 239 670
e 241 687
e 241 657
e 241 782
e 241 650
e 242 713
e 242 354
e 242 649
e 242 740
e 242 490
e 242 793
e 242 345
e 242 718
e 243 411
e 243 565
e 243 344
e 244 305
e 244 792
e 244 973
e 244 931
e 244 354
e 245 348
e 245 541
e 246 595
e 246 738
e 247 353
e 247 763
e 247 804
e 247 444
e 249 919
e 249 270
e 249 671
e 250 963
e 250 546
e 250 596
e 251 950
e 251 312
e 252 735
e 252 461
e 252 427
e 252 972
e 252 578
e 252 953
e 253 435
e 255 457
e 255 962
e 255 578
e 255 258
e 256 839
e 256 527
e 258 508
e 258 715
e 258 360
e 259 915
e 259 918
e 259 805
e 259 785
e 259 296
e 261 654
e 261 881
e 261 473
e 262 577
e 262 642
e 262 873
e 262 704
e 263 806
e 265 792
e 266 636
e 266 524
e 267 666
e 267 278
e 267 359
e 268 877
e 268 972
e 268 531
e 270 816
e 270 679
e 270 784
e 270 303
e 272 727
e 272 797
e 272 910
e 273 302
e 273 535
e 273 442
e 274 562
e 274 665
e 275 609
e 275 419
e 275 618
e 275 829
e 277 853
e 277 529
e 277 757
e 278 519
e 280 922
e 280 509
e 280 636
e 282 568
e 282 605
e 282 904
e 283 476
e 283 626
e 283 339
e 284 717
e 284 954
e 284 828
e 284 619
e 284 889
e 285 434
e 285 809
e 285 296
e 285 953
e 286 576
e 286 850
e 286 686
e 287 941
e 287 475
e 287 826
e 289 450
e 289 559
e 289 504
e 291 488
e 291 728
e 292 776
e 292 990
e 292 368
e 292 504
e 292 976
e 295 509
e 295 477
e 295 909
e 295 449
e 296 979
e 296 309
e 296 871
e 296 833
e 297 723
e 297 551
e 297 534
e 299 771
e 299 629
e 299 579
e 300 507
e 302 523
e 302 509
e 303 831
e 303 819
e 303 589
e 305 979
e 305 641
e 307 627
e 307 804
e 307 614
e 308 792
e 308 661
e 308 554
e 308 977
e 308 673
e 309 813
e 310 804
e 310 460
e 310 888
e 310 763
e 311 674
e 311 926
e 311 899
e 312 468
e 312 874
e 312 873
e 312 537
e 313 542
e 313 437
e 314 806
e 314 826
e 314 364
e 315 345
e 315 571
e 316 521
e 316 455
e 316 591
e 317 878
e 317 945
e 318 387
e 318 971
e 318 563
e 319 855
e 319 695
e 319 412
e 319 534
e 320 729
e 322 952
e 323 368
e 323 803
e 325 399
e 325 510
e 325 655
e 326 506
e 326 931
e 331 695
e 331 449
e 333 457
e 333 424
e 333 376
e 333 947
e 334 479
e 334 871
e 334 469
e 334 687
e 334 777
e 334 426
e 334 858
e 334 804
e 337 533
e 337 438
e 337 412
e 338 481
e 338 524
e 338 550
e 339 916
e 339 505
e 339 403
e 339 885
e 340 392
e 340 822
e 340 971
e 340 719
e 340 851
e 342 624
e 343 500
e 343 569
e 343 566
e 343 563
e 344 706
e 344 571
e 344 546
e 344 842
e 344 747
e 345 516
e 345 920
e 347 426
e 347 782
e 347 645
e 348 579
e 348 702
e 349 433
e 349 539
e 349 633
e 350 737
e 350 955
e 350 961
e 350 801
e 350 596
e 350 842
e 350 983
e 350 849
e 350 937
e 353 475
e 353 443
e 353 795
e 354 834
e 354 664
e 354 689
e 354 908
e 354 852
e 354 668
e 355 918
e 355 496
e 355 861
e 355 581
e 356 760
e 356 850
e 356 368
e 357 796
e 357 520
e 357 379
e 358 841
e 359 550
e 359 592
e 359 473
e 360 587
e 360 548
e 360 824
e 360 769
e 361 957
e 361 625
e 362 948
e 362 862
e 362 937
e 363 661
e 363 690
e 364 581
e 365 865
e 365 551
e 365 626
e 365 646
e 366 853
e 366 857
e 368 686
e 368 766
e 369 775
e 369 586
e 371 801
e 371 837
e 371 426
e 371 839
e 371 728
e 373 531
e 373 470
e 373 806
e 374 787
e 374 474
e 374 767
e 376 948
e 376 676
e 376 719
e 376 541
e 377 706
e 377 714
e 379 718
e 379 995
e 379 770
e 379 624
e 380 597
e 381 583
e 381 728
e 383 708
e 383 852
e 383 597
e 383 655
e 383 700
e 383 867
e 383 583
e 383 915
e 384 618
e 384 755
e 384 662
e 384 910
e 384 644
e 385 665
e 385 893
e 387 494
e 387 967
e 389 479
e 389 567
e 389 919
e 391 779
e 391 392
e 391 530
e 391 770
e 391 564
e 391 653
e 392 648
e 392 695
e 393 630
e 393 494
e 397 894
e 397 589
e 397 653
e 399 674
e 400 653
e 400 851
e 400 490
e 400 517
e 400 705
e 400 681
e 403 679
e 403 588
e 403 753
e 403 931
e 403 901
e 406 783
e 406 579
e 406 680
e 406 533
e 407 578
e 407 919
e 407 582
e 407 687
e 407 653
e 407 498
e 408 519
e 408 696
e 408 544
e 408 867
e 408 853
e 410 485
e 410 830
e 410 536
e 410 820
e 411 618
e 411 809
e 411 777
e 412 546
e 412 758
e 413 835
e 413 791
e 414 741
e 414 665
e 414 997
e 416 805
e 416 447
e 417 697
e 417 601
e 418 619
e 418 818
e 418 437
e 418 893
e 418 752
e 419 502
e 419 857
e 419 435
e 419 735
e 420 479
e 420 456
e 420 780
e 420 839
e 422 650
e 422 708
e 422 438
e 422 777
e 424 651
e 424 476
e 425 632
e 425 646
e 427 591
e 427 523
e 428 564
e 428 769
e 428 944
e 428 985
e 430 985
e 430 680
e 430 878
e 430 875
e 431 829
e 431 635
e 431 947
e 433 523
e 434 848
e 434 468
e 434 655
e 435 811
e 435 574
e 435 930
e 435 941
e 435 907
e 437 462
e 437 649
e 437 944
e 437 901
e 440 719
e 440 948
e 441 616
e 441 510
e 441 445
e 441 669
e 442 688
e 442 898
e 442 800
e 442 666
e 442 723
e 443 602
e 443 940
e 443 555
e 443 791
e 444 822
e 444 636
e 444 468
e 445 683
e 445 978
e 447 837
e 447 767
e 447 848
e 448 581
e 448 614
e 448 825
e 448 477
e 453 639
e 453 578
e 453 889
e 455 640
e 455 912
e 456 692
e 456 580
e 456 804
e 457 474
e 457 751
e 457 702
e 458 979
e 458 922
e 459 534
e 459 749
e 459 559
e 459 766
e 460 603
e 460 505
e 461 478
e 462 800
e 462 939
e 462 709
e 462 520
e 463 655
e 463 984
e 465 936
e 465 698
e 465 793
e 466 863
e 468 875
e 468 913
e 469 873
e 469 947
e 469 702
e 470 691
e 470 978
e 473 608
e 473 816
e 474 775
e 474 861
e 474 501
e 475 922
e 475 559
e 476 626
e 476 941
e 476 831
e 477 752
e 478 706
e 478 627
e 478 882
e 478 569
e 478 813
e 479 834
e 480 551
e 480 974
e 481 962
e 481 972
e 483 869
e 483 614
e 483 755
e 484 920
e 484 940
e 485 713
e 486 495
e 487 596
e 487 802
e 487 533
e 487 651
e 488 737
e 488 595
e 488 629
e 489 800
e 489 961
e 489 811
e 490 842
e 490 793
e 490 546
e 490 769
e 491 604
e 491 843
e 494 969
e 495 644
e 495 731
e 496 856
e 496 587
e 498 538
e 498 677
e 500 651
e 500 619
e 501 810
e 501 918
e 501 522
e 502 910
e 504 549
e 504 915
e 505 765
e 506 861
e 506 627
e 507 974
e 507 519
e 508 904
e 508 696
e 508 816
e 508 870
e 509 627
e 509 961
e 509 847
e 509 820
e 509 548
e 510 929
e 510 912
e 510 589
e 510 571
e 511 545
e 511 602
e 511 673
e 512 916
e 512 586
e 515 796
e 515 930
e 515 987
e 515 794
e 516 536
e 516 811
e 516 621
e 516 812
e 517 711
e 517 669
e 518 621
e 518 614
e 518 519
e 518 581
e 520 813
e 521 799
e 521 798
e 521 796
e 522 645
e 522 863
e 523 869
e 524 766
e 525 842
e 525 884
e 527 865
e 527 843
e 529 929
e 529 665
e 530 998
e 530 603
e 530 908
e 530 686
e 531 669
e 532 897
e 532 579
e 533 791
e 533 619
e 534 831
e 535 990
e 535 734
e 535 697
e 535 550
e 535 549
e 535 898
e 536 839
e 537 923
e 537 847
e 538 884
e 539 584
e 539 586
e 539 723
e 541 640
e 542 622
e 542 792
e 544 699
e 544 624
e 545 969
e 548 609
e 549 849
e 549 965
e 549 922
e 550 813
e 550 963
e 551 961
e 551 816
e 552 907
e 552 601
e 554 577
e 554 683
e 555 681
e 556 698
e 556 684
e 556 726
e 556 843
e 559 862
e 563 873
e 564 954
e 565 989
e 565 908
e 565 783
e 566 843
e 566 700
e 567 923
e 567 597
e 567 661
e 568 943
e 568 988
e 569 859
e 570 651
e 570 887
e 570 627
e 570 578
e 571 582
e 571 763
e 574 851
e 576 903
e 576 693
e 576 946
e 577 820
e 578 700
e 579 839
e 580 677
e 580 951
e 581 823
e 582 998
e 582 991
e 583 794
e 583 727
e 583 896
e 583 854
e 586 671
e 586 987
e 586 616
e 586 792
e 587 640
e 588 687
e 588 715
e 589 777
e 590 778
e 590 898
e 591 921
e 591 606
e 593 798
e 593 639
e 595 821
e 595 734
e 595 955
e 596 878
e 597 762
e 597 728
e 597 614
e 601 865
e 602 696
e 602 877
e 603 998
e 604 763
e 604 751
e 605 715
e 606 987
e 606 776
e 608 918
e 608 968
e 608 847
e 608 753
e 609 684
e 613 988
e 613 750
e 613 820
e 613 728
e 614 727
e 614 791
e 615 634
e 615 969
e 615 793
e 615 668
e 616 733
e 617 824
e 617 831
e 618 953
e 621 876
e 621 752
e 622 929
e 622 662
e 623 771
e 623 901
e 624 688
e 625 662
e 625 999
e 625 752
e 627 681
e 627 946
e 630 940
e 632 803
e 632 878
e 633 856
e 634 857
e 634 821
e 634 912
e 635 644
e 635 967
e 639 990
e 642 867
e 642 784
e 643 704
e 643 650
e 643 861
e 646 912
e 646 998
e 649 916
e 649 665
e 650 714
e 650 940
e 651 984
e 652 824
e 652 799
e 653 922
e 653 1000
e 653 795
e 653 747
e 654 977
e 654 840
e 657 899
e 658 785
e 658 940
e 659 990
e 659 907
e 664 876
e 664 755
e 665 794
e 665 787
e 665 715
e 666 873
e 666 943
e 668 782
e 670 842
e 671 822
e 671 920
e 673 676
e 673 749
e 674 884
e 674 684
e 674 968
e 676 921
e 677 868
e 678 951
e 678 909
e 678 758
e 679 985
e 679 865
e 679 783
e 679 695
e 680 748
e 686 775
e 686 865
e 687 996
e 687 711
e 687 882
e 688 969
e 688 843
e 689 814
e 689 875
e 690 855
e 691 979
e 691 856
e 692 882
e 692 899
e 693 990
e 693 829
e 695 945
e 696 776
e 697 930
e 697 984
e 697 981
e 698 970
e 698 967
e 698 945
e 699 968
e 700 919
e 700 925
e 704 731
e 705 996
e 706 843
e 706 722
e 708 898
e 709 920
e 709 878
e 711 999
e 711 777
e 713 839
e 714 902
e 714 800
e 714 757
e 715 737
e 719 796
e 719 879
e 721 979
e 722 897
e 723 862
e 723 975
e 726 987
e 727 825
e 728 830
e 731 832
e 734 872
e 735 987
e 735 870
e 738 870
e 738 1000
e 740 785
e 740 804
e 741 830
e 744 806
e 744 879
e 744 757
e 744 872
e 744 877
e 744 829
e 747 923
e 748 792
e 749 894
e 749 862
e 750 806
e 750 932
e 750 965
e 750 958
e 753 861
e 755 872
e 755 898
e 762 843
e 762 919
e 763 834
e 765 770
e 765 983
e 765 989
e 765 974
e 766 779
e 769 907
e 770 940
e 770 792
e 771 795
e 776 975
e 776 952
e 776 871
e 777 834
e 777 948
e 778 1000
e 779 803
e 779 954
e 779 926
e 779 990
e 780 997
e 782 875
e 783 995
e 792 862
e 793 829
e 794 938
e 795 968
e 795 938
e 796 814
e 797 925
e 797 798
e 798 876
e 798 965
e 799 855
e 799 936
e 799 909
e 799 857
e 800 948
e 800 850
e 801 905
e 802 937
e 803 828
e 803 855
e 804 944
e 805 991
e 805 998
e 806 931
e 809 958
e 809 823
e 809 981
e 809 869
e 810 840
e 810 941
e 812 929
e 813 863
e 813 981
e 813 937
e 814 887
e 814 931
e 815 830
e 816 957
e 819 834
e 820 896
e 820 955
e 821 916
e 821 941
e 821 857
e 821 903
e 822 833
e 823 944
e 824 998
e 826 983
e 830 859
e 830 961
e 832 876
e 832 973
e 835 877
e 837 913
e 839 999
e 840 888
e 841 992
e 842 921
e 842 902
e 843 926
e 843 905
e 848 872
e 849 998
e 849 975
e 849 932
e 851 885
e 851 881
e 851 879
e 853 949
e 856 879
e 857 971
e 858 998
e 863 925
e 863 952
e 863 973
e 868 998
e 873 907
e 873 976
e 876 992
e 882 921
e 885 932
e 889 901
e 894 957
e 897 956
e 897 983
e 898 963
e 910 966
e 912 956
e 912 946
e 921 981
e 922 946
e 923 997
e 929 977
e 931 956
e 932 967
e 936 996
e 937 984
e 938 941
e 939 947
e 943 962
e 944 998
e 947 951
e 949 962
e 949 989
e 966 979
e 973 981
